benchmarks_vrp/CMT12/no_cluster/CMT12_9.vrp
NAME: CMT12_9
TYPE: CVRP
COMMENT: 819.56 - Cluster Nr.9
DIMENSION: 3
CAPACITY: 200
EDGE_WEIGHT_TYPE: EUC_2D
NODE_COORD_TYPE: TWOD_COORDS
NODE_COORD_SECTION: 
1 55 85
2 40 50
3 60 85
DEPOT_SECTION: 
2
-1
DEMAND_SECTION: 
1 20
2 0
3 30
EOF
