benchmarks_vrp/CMT12/no_cluster/CMT12_9.tour
NAME: CMT12_9 solution
TYPE: TOUR
TOUR_SECTION:
2 1 3 -1
-1
EOF